135
66
130
77
68
56
115
98
58
37
39
93
94
143
74
87
16
81
32
145
65
146
50
126
103
113
28
4
89
70
59
99
95
19
42
72
138
9
7
144
60
80
141
31
75
108
69
64
117
14
46
0
54
23
91
36
97
110
2
123
21
83
139
140
84
61
78
30
34
20
111
11
137
6
116
55
118
107
3
57
35
41
147
40
8
51
127
149
86
47
106
114
53
12
44
67
26
131
17
128
133
29
119
45
105
33
102
63
5
27
96
109
104
43
122
10
22
71
62
136
18
92
79
124
125
24
142
13
76
101
73
82
148
121
88
120
90
49
132
85
134
112
1
15
100
25
38
52
48
